smt-logs/cvc5/real/beasties10.smt2.log
sat
(
(define-fun sym743 () String "R")
(define-fun sym205 () String "Y")
(define-fun sym547 () String "R")
(define-fun sym161 () String "A")
)
